param U := 10;
param N := 5;
param demand := 100;

param : A :=
	1 5
	2 3
	3 5
	4 10
	5 20
	6 35
	7 10
	8 50
	9 100
	10 25;

param : B :=
	1 0.1
	2 0.2
	3 0.4
	4 0.2
	5 0.3
	6 0.2
	7 0.3
	8 0.1
	9 0.2
	10 0.3;

param : C :=
	1 0.01
	2 0.02
	3 0.3
	4 0.2
	5 0.01
	6 0.02
	7 0.03
	8 0.05
	9 0.09
	10 0.05;

param : Pmin := 1 4 2 5 3 10 4 6 5 1 6 25 7 50 8 3 9 5 10 20;
param : Pmax := 1 25 2 20 3 30 4 20 5 10 6 50 7 100 8 30 9 45 10 60;

end;



